0 170 257
1 163 274
2 256 280
3 233 291
4 272 294
5 298 300
6 295 303
7 246 305
8 237 307
9 306 307
10 305 305
11 303 306
12 158 305
13 282 303
14 178 305
15 289 305
16 303 305
17 132 305
18 305 305
19 297 304
20 279 303
21 294 301
22 282 301
23 301 301
24 289 301
25 279 301
26 298 301
27 300 300
28 297 299
29 295 299
30 153 298
31 222 299
32 292 299
33 281 301
34 302 302
35 301 302
36 63 301
37 295 300
38 254 300
39 301 302
40 297 303
41 252 302
42 292 303
43 298 302
44 245 301
45 289 302
46 289 302
47 257 302
48 290 302
49 286 301
50 293 300
51 256 299
52 297 299
53 298 299
54 296 298
55 283 298
56 289 297
57 286 296
58 289 296
59 257 294
60 216 293
61 282 292
62 272 291
63 287 291
64 280 290
65 287 288
66 286 287
67 286 287
68 204 286
69 283 283
70 277 283
71 252 284
72 276 283
73 271 282
74 259 280
75 277 278
76 271 278
77 270 277
78 272 277
79 155 276
80 254 278
81 268 278
82 252 278
83 238 276
84 268 274
85 157 272
86 140 272
87 227 275
88 250 276
89 256 276
90 273 275
91 257 274
92 197 275
93 268 274
94 266 273
95 259 273
96 267 272
97 230 271
98 269 270
99 241 268
100 243 269
101 261 268
102 251 268
103 240 267
104 249 267
105 262 266
106 255 268
107 258 268
108 234 268
109 228 267
110 263 266
111 262 265
112 264 264
113 249 264
114 263 263
115 262 262
116 258 262
117 237 262
118 257 260
119 245 259
120 252 259
121 249 257
122 247 256
123 209 259
124 143 261
125 201 261
126 174 266
127 232 267
128 213 268
129 267 271
130 265 271
131 269 269
132 266 268
133 237 268
134 251 268
135 242 267
136 267 267
137 189 267
138 219 266
139 112 265
140 172 264
141 254 266
142 252 265
143 251 264
144 263 263
145 207 261
146 258 261
147 253 260
148 161 260
149 259 261
150 260 260
151 258 259
152 259 259
153 256 258
154 256 256
155 245 256
156 249 256
157 212 255
158 254 254
159 253 253
160 226 253
161 245 252
162 251 251
163 247 250
164 238 249
165 196 249
166 249 249
167 228 248
168 241 246
169 246 246
170 238 246
171 141 246
172 114 245
173 218 247
174 228 247
175 188 247
176 236 246
177 170 244
178 241 243
179 227 241
180 238 240
181 239 239
182 42 240
183 200 243
184 136 243
185 198 244
186 236 243
187 215 242
188 240 242
189 238 241
190 239 240
191 239 240
192 239 239
193 237 238
194 231 238
195 225 237
196 221 236
197 189 235
198 226 233
199 203 231
200 225 229
201 158 228
202 210 229
203 124 230
204 147 231
205 236 241
206 236 249
207 202 249
208 161 248
209 238 248
210 228 247
211 214 247
212 247 247
213 136 245
214 219 243
215 243 244
216 196 244
217 242 243
218 235 242
219 210 241
220 187 240
221 219 239
222 234 238
223 234 237
224 235 236
225 232 235
226 233 235
227 234 235
228 234 234
229 230 234
230 221 233
231 206 231
232 204 230
233 219 229
234 223 226
235 212 226
236 216 225
237 216 223
238 214 222
239 220 220
240 202 219
241 218 219
242 215 219
243 186 220
244 62 219
245 96 220
246 217 222
247 217 227
248 220 229
249 188 230
250 209 231
251 227 233
252 201 233
253 191 231
254 226 230
255 222 229
256 196 227
257 225 226
258 189 225
259 213 223
260 210 224
261 217 223
262 217 223
263 223 223
264 223 223
265 162 222
266 218 221
267 193 220
268 217 219
269 194 218
270 141 218
271 216 217
272 210 218
273 214 218
274 218 220
275 208 219
276 161 219
277 212 217
278 201 215
279 199 214
280 211 214
281 195 213
282 211 215
283 214 214
284 210 212
285 208 212
286 201 211
287 179 209
288 208 210
289 197 212
290 208 213
291 211 213
292 203 213
293 204 213
294 172 212
295 198 214
296 87 213
297 150 216
298 201 215
299 202 214
300 183 213
301 152 213
302 207 213
303 208 212
304 207 211
305 210 210
306 187 208
307 206 207
308 206 208
309 206 207
310 196 205
311 201 203
312 168 204
313 203 208
314 203 207
315 206 207
316 156 205
317 141 205
318 60 205
319 191 204
320 177 206
321 122 209
322 204 209
323 205 210
324 209 211
325 210 210
326 69 209
327 44 210
328 206 218
329 208 218
330 216 217
331 212 216
332 215 215
333 211 214
334 195 215
335 176 214
336 196 214
337 216 216
338 214 215
339 207 214
340 144 212
341 204 214
342 192 213
343 186 211
344 130 209
345 202 207
346 201 205
347 185 205
348 177 204
349 58 203
350 204 205
351 48 204
352 41 205
353 204 205
354 180 206
355 198 207
356 122 207
357 74 206
358 181 205
359 196 205
360 185 204
361 159 202
362 159 201
363 195 200
364 189 198
365 194 195
366 184 196
367 164 194
368 184 193
369 164 193
370 174 193
371 138 193
372 191 192
373 154 191
374 186 189
375 177 188
376 149 187
377 180 186
378 176 185
379 179 184
380 182 184
381 171 184
382 151 184
383 186 186
384 175 186
385 178 185
386 183 184
387 138 183
388 24 184
389 182 184
390 173 183
391 66 183
392 172 183
393 178 181
394 172 179
395 170 179
396 172 177
397 81 177
398 170 177
399 167 176
400 159 177
401 135 177
402 177 178
403 112 176
404 174 176
405 175 175
406 174 175
407 100 175
408 48 174
409 147 175
410 174 175
411 167 173
412 131 172
413 86 170
414 60 173
415 166 172
416 163 171
417 158 171
418 168 170
419 169 169
420 150 167
421 167 167
422 166 166
423 166 166
424 140 165
425 39 163
426 10 161
427 163 166
428 163 167
429 143 169
430 155 172
431 168 172
432 169 171
433 147 170
434 165 170
435 168 171
436 98 170
437 169 169
438 159 168
439 163 168
440 167 167
441 67 168
442 161 168
443 158 167
444 160 168
445 147 168
446 163 168
447 142 168
448 163 166
449 99 164
450 158 165
451 162 164
452 155 163
453 152 162
454 145 162
455 147 161
456 103 160
457 145 159
458 159 159
459 156 157
460 148 156
461 49 154
462 87 153
463 148 153
464 153 154
465 145 153
466 41 154
467 158 158
468 13 157
469 150 158
470 66 159
471 163 163
472 163 163
473 146 162
474 162 162
475 154 161
476 27 161
477 155 160
478 21 160
479 141 160
480 153 159
481 148 158
482 147 159
483 150 160
484 93 159
485 2 158
486 159 161
487 152 162
488 144 161
489 123 160
490 125 159
491 139 159
492 157 159
493 145 158
494 143 157
495 156 156
496 153 155
497 152 154
498 137 153
499 139 151
500 130 150
501 143 149
502 131 150
503 145 149
504 142 148
505 107 147
506 122 147
507 143 147
508 131 147
509 124 145
510 102 145
511 143 145
512 144 144
513 144 144
514 133 143
515 121 141
516 140 140
517 140 140
518 137 140
519 117 140
520 132 140
521 99 141
522 140 143
523 140 141
524 138 140
525 32 139
526 127 137
527 135 136
528 20 135
529 130 136
530 132 134
531 114 132
532 122 131
533 131 131
534 125 130
535 128 129
536 111 128
537 15 126
538 91 125
539 115 125
540 116 124
541 74 123
542 112 122
543 116 119
544 107 120
545 103 120
546 11 118
547 106 118
548 39 117
549 4 116
550 1 118
551 119 121
552 116 121
553 87 120
554 112 119
555 114 119
556 111 117
557 118 118
558 116 117
559 114 116
560 116 116
561 116 116
562 115 115
563 107 113
564 109 113
565 113 115
566 104 114
567 114 115
568 111 115
569 93 115
570 105 114
571 113 113
572 112 112
573 111 112
574 107 111
575 90 111
576 81 111
577 110 110
578 109 109
579 50 108
580 109 110
581 91 108
582 55 106
583 106 107
584 84 106
585 102 104
586 100 102
587 86 100
588 80 103
589 53 103
590 92 102
591 97 100
592 77 100
593 84 100
594 99 100
595 99 99
596 99 99
597 66 98
598 79 95
599 53 92
600 64 92
601 69 91
602 81 88
603 70 87
604 87 87
605 87 87
606 86 87
607 67 86
608 82 86
609 83 85
610 66 84
611 76 83
612 79 80
613 65 79
614 59 81
615 49 80
616 74 79
617 78 78
618 70 77
619 73 73
620 64 70
621 69 70
622 70 70
623 62 71
624 71 72
625 68 71
626 63 69
627 55 68
628 68 68
629 67 67
630 41 66
631 60 64
632 63 65
633 58 65
634 65 65
635 62 63
636 39 61
637 63 63
638 62 62
639 44 61
640 55 59
641 45 59
642 57 59
643 59 59
644 58 58
645 57 58
646 57 57
647 50 56
648 55 55
649 42 54
650 52 53
651 52 55
652 52 54
653 53 53
654 39 52
655 23 49
656 36 50
657 45 50
658 28 49
659 37 49
660 47 47
661 46 46
662 46 46
663 38 45
664 30 46
665 45 45
666 44 44
667 44 44
668 32 43
669 42 42
670 21 41
671 34 39
672 24 42
673 45 47
674 37 43
675 35 40
676 39 41
677 40 40
678 23 39
679 35 37
680 35 35
681 34 35
682 34 36
683 37 37
684 28 36
685 32 34
686 19 34
687 33 33
688 29 32
689 24 33
690 30 33
691 34 34
692 33 33
693 33 33
694 25 33
695 28 32
696 25 31
697 15 30
698 28 30
699 29 29
700 24 28
701 28 28
702 27 27
703 25 25
704 26 27
705 11 24
706 9 24
707 19 21
708 15 22
709 18 19
710 12 18
711 9 20
712 15 20
713 14 20
714 14 19
715 13 17
716 15 15
717 14 15
718 13 16
719 12 15
720 14 14
721 6 13
722 9 15
723 14 15
724 6 14
725 7 11
726 4 8
727 7 8
728 8 8
729 7 7
730 2 4
731 4 4
732 3 3
733 1 4
734 2 3
735 2 3
736 2 3
737 1 2
738 1 1

